p cnf 109 482
1 2 3 4 0
-1 -2 0
-1 -3 0
-1 -4 0
-2 -3 0
-2 -4 0
-3 -4 0
5 6 7 8 0
-5 -6 0
-5 -7 0
-5 -8 0
-6 -7 0
-6 -8 0
-7 -8 0
9 10 11 12 0
-9 -10 0
-9 -11 0
-9 -12 0
-10 -11 0
-10 -12 0
-11 -12 0
13 14 15 0
-13 -14 0
-13 -15 0
-14 -15 0
16 17 18 19 0
-16 -17 0
-16 -18 0
-16 -19 0
-17 -18 0
-17 -19 0
-18 -19 0
20 21 22 23 0
-20 -21 0
-20 -22 0
-20 -23 0
-21 -22 0
-21 -23 0
-22 -23 0
24 25 26 27 0
-24 -25 0
-24 -26 0
-24 -27 0
-25 -26 0
-25 -27 0
-26 -27 0
28 29 30 31 0
-28 -29 0
-28 -30 0
-28 -31 0
-29 -30 0
-29 -31 0
-30 -31 0
32 33 34 35 0
-32 -33 0
-32 -34 0
-32 -35 0
-33 -34 0
-33 -35 0
-34 -35 0
36 37 38 0
-36 -37 0
-36 -38 0
-37 -38 0
39 40 41 0
-39 -40 0
-39 -41 0
-40 -41 0
42 43 44 45 0
-42 -43 0
-42 -44 0
-42 -45 0
-43 -44 0
-43 -45 0
-44 -45 0
46 47 48 49 0
-46 -47 0
-46 -48 0
-46 -49 0
-47 -48 0
-47 -49 0
-48 -49 0
50 51 52 53 0
-50 -51 0
-50 -52 0
-50 -53 0
-51 -52 0
-51 -53 0
-52 -53 0
54 55 56 57 0
-54 -55 0
-54 -56 0
-54 -57 0
-55 -56 0
-55 -57 0
-56 -57 0
58 59 60 0
-58 -59 0
-58 -60 0
-59 -60 0
61 62 63 64 0
-61 -62 0
-61 -63 0
-61 -64 0
-62 -63 0
-62 -64 0
-63 -64 0
65 66 67 0
-65 -66 0
-65 -67 0
-66 -67 0
68 69 70 71 0
-68 -69 0
-68 -70 0
-68 -71 0
-69 -70 0
-69 -71 0
-70 -71 0
72 73 74 75 0
-72 -73 0
-72 -74 0
-72 -75 0
-73 -74 0
-73 -75 0
-74 -75 0
76 77 78 79 0
-76 -77 0
-76 -78 0
-76 -79 0
-77 -78 0
-77 -79 0
-78 -79 0
80 81 82 0
-80 -81 0
-80 -82 0
-81 -82 0
83 84 85 86 0
-83 -84 0
-83 -85 0
-83 -86 0
-84 -85 0
-84 -86 0
-85 -86 0
87 88 89 90 0
-87 -88 0
-87 -89 0
-87 -90 0
-88 -89 0
-88 -90 0
-89 -90 0
91 92 93 94 0
-91 -92 0
-91 -93 0
-91 -94 0
-92 -93 0
-92 -94 0
-93 -94 0
95 96 97 98 0
-95 -96 0
-95 -97 0
-95 -98 0
-96 -97 0
-96 -98 0
-97 -98 0
99 100 101 0
-99 -100 0
-99 -101 0
-100 -101 0
102 103 104 105 0
-102 -103 0
-102 -104 0
-102 -105 0
-103 -104 0
-103 -105 0
-104 -105 0
106 107 108 109 0
-106 -107 0
-106 -108 0
-106 -109 0
-107 -108 0
-107 -109 0
-108 -109 0
-1 -16 0
-2 -17 0
-3 -18 0
-4 -19 0
-1 -28 0
-2 -29 0
-3 -30 0
-4 -31 0
-1 -36 0
-2 -37 0
-4 -38 0
-1 -39 0
-2 -40 0
-4 -41 0
-1 -46 0
-2 -47 0
-3 -48 0
-4 -49 0
-1 -50 0
-2 -51 0
-3 -52 0
-4 -53 0
-1 -58 0
-2 -59 0
-4 -60 0
-1 -72 0
-2 -73 0
-3 -74 0
-4 -75 0
-5 -28 0
-6 -29 0
-7 -30 0
-8 -31 0
-5 -54 0
-6 -55 0
-7 -56 0
-8 -57 0
-5 -95 0
-6 -96 0
-7 -97 0
-8 -98 0
-9 -13 0
-10 -14 0
-12 -15 0
-9 -39 0
-10 -40 0
-12 -41 0
-9 -61 0
-10 -62 0
-11 -63 0
-12 -64 0
-9 -102 0
-10 -103 0
-11 -104 0
-12 -105 0
-13 -20 0
-14 -21 0
-15 -23 0
-13 -36 0
-14 -37 0
-15 -38 0
-13 -54 0
-14 -55 0
-15 -57 0
-13 -80 0
-14 -81 0
-15 -82 0
-13 -87 0
-14 -88 0
-15 -90 0
-13 -91 0
-14 -92 0
-15 -94 0
-16 -39 0
-17 -40 0
-19 -41 0
-16 -46 0
-17 -47 0
-18 -48 0
-19 -49 0
-16 -61 0
-17 -62 0
-18 -63 0
-19 -64 0
-16 -83 0
-17 -84 0
-18 -85 0
-19 -86 0
-16 -91 0
-17 -92 0
-18 -93 0
-19 -94 0
-16 -102 0
-17 -103 0
-18 -104 0
-19 -105 0
-20 -42 0
-21 -43 0
-22 -44 0
-23 -45 0
-20 -50 0
-21 -51 0
-22 -52 0
-23 -53 0
-20 -58 0
-21 -59 0
-23 -60 0
-20 -65 0
-21 -66 0
-23 -67 0
-20 -95 0
-21 -96 0
-22 -97 0
-23 -98 0
-20 -102 0
-21 -103 0
-22 -104 0
-23 -105 0
-24 -50 0
-25 -51 0
-26 -52 0
-27 -53 0
-24 -68 0
-25 -69 0
-26 -70 0
-27 -71 0
-24 -83 0
-25 -84 0
-26 -85 0
-27 -86 0
-24 -102 0
-25 -103 0
-26 -104 0
-27 -105 0
-28 -68 0
-29 -69 0
-30 -70 0
-31 -71 0
-28 -72 0
-29 -73 0
-30 -74 0
-31 -75 0
-28 -106 0
-29 -107 0
-30 -108 0
-31 -109 0
-32 -72 0
-33 -73 0
-34 -74 0
-35 -75 0
-32 -83 0
-33 -84 0
-34 -85 0
-35 -86 0
-32 -95 0
-33 -96 0
-34 -97 0
-35 -98 0
-32 -102 0
-33 -103 0
-34 -104 0
-35 -105 0
-36 -54 0
-37 -55 0
-38 -57 0
-36 -58 0
-37 -59 0
-38 -60 0
-36 -95 0
-37 -96 0
-38 -98 0
-36 -106 0
-37 -107 0
-38 -109 0
-39 -54 0
-40 -55 0
-41 -57 0
-39 -68 0
-40 -69 0
-41 -71 0
-39 -72 0
-40 -73 0
-41 -75 0
-39 -80 0
-40 -81 0
-41 -82 0
-39 -106 0
-40 -107 0
-41 -109 0
-42 -50 0
-43 -51 0
-44 -52 0
-45 -53 0
-42 -54 0
-43 -55 0
-44 -56 0
-45 -57 0
-42 -76 0
-43 -77 0
-44 -78 0
-45 -79 0
-42 -80 0
-43 -81 0
-45 -82 0
-42 -87 0
-43 -88 0
-44 -89 0
-45 -90 0
-46 -58 0
-47 -59 0
-49 -60 0
-46 -61 0
-47 -62 0
-48 -63 0
-49 -64 0
-46 -95 0
-47 -96 0
-48 -97 0
-49 -98 0
-50 -61 0
-51 -62 0
-52 -63 0
-53 -64 0
-50 -80 0
-51 -81 0
-53 -82 0
-50 -95 0
-51 -96 0
-52 -97 0
-53 -98 0
-51 -99 0
-52 -100 0
-53 -101 0
-50 -106 0
-51 -107 0
-52 -108 0
-53 -109 0
-54 -76 0
-55 -77 0
-56 -78 0
-57 -79 0
-54 -80 0
-55 -81 0
-57 -82 0
-54 -102 0
-55 -103 0
-56 -104 0
-57 -105 0
-58 -72 0
-59 -73 0
-60 -75 0
-58 -76 0
-59 -77 0
-60 -79 0
-59 -99 0
-60 -101 0
-61 -72 0
-62 -73 0
-63 -74 0
-64 -75 0
-61 -95 0
-62 -96 0
-63 -97 0
-64 -98 0
-68 -72 0
-69 -73 0
-70 -74 0
-71 -75 0
-69 -99 0
-70 -100 0
-71 -101 0
-68 -106 0
-69 -107 0
-70 -108 0
-71 -109 0
-72 -76 0
-73 -77 0
-74 -78 0
-75 -79 0
-72 -91 0
-73 -92 0
-74 -93 0
-75 -94 0
-72 -102 0
-73 -103 0
-74 -104 0
-75 -105 0
-76 -83 0
-77 -84 0
-78 -85 0
-79 -86 0
-76 -91 0
-77 -92 0
-78 -93 0
-79 -94 0
-81 -99 0
-82 -101 0
-92 -99 0
-93 -100 0
-94 -101 0
